proyfinal/src/viki/013/experimentInOfficeAgust.take6.output/1ffc1a0e-2be3-41c5-8bf2-a2d185bc2c13.als.dat
{'cnf.clauses': '118081',
 'cnf.totvars': '69608',
 'conflict literals': '807',
 'conflicts': '120',
 'decisions': '4026',
 'memused.mb': '15.08',
 'outcome': 'UNSAT',
 'propagations': '170261',
 'restarts': '2',
 'solver.msecs': 43,
 'task.msecs': 106}
