proyfinal/src/viki/013/experimentInOfficeAgust.take6.output/1ffc1a0e-2be3-41c5-8bf2-a2d185bc2c13.als.out
Reading from standard input... Use '--help' for help.
============================[ Problem Statistics ]=============================
|                                                                             |
|  Number of variables:         69608                                         |
|  Number of clauses:          118081                                         |
|  Parse time:                   0.02 s                                       |
|                                                                             |
============================[ Search Statistics ]==============================
| Conflicts |          ORIGINAL         |          LEARNT          | Progress |
|           |    Vars  Clauses Literals |    Limit  Clauses Lit/Cl |          |
===============================================================================
|       100 |   56616    81403   201465 |    29847       93      8 | 18.665 % |
===============================================================================
restarts              : 2
conflicts             : 120            (2738 /sec)
decisions             : 4026           (0.00 % random) (91844 /sec)
propagations          : 170261         (3884134 /sec)
conflict literals     : 807            (23.65 % deleted)
Memory used           : 15.08 MB
CPU time              : 0.043835 s

UNSATISFIABLE
